c Created with the Wolfram Language : www.wolfram.com
c 
p edge 80 638
e 3 5
e 5 8
e 1 9
e 4 9
e 5 9
e 8 9
e 1 10
e 3 10
e 9 11
e 3 12
e 4 12
e 8 12
e 9 12
e 4 13
e 6 13
e 9 13
e 7 14
e 9 14
e 5 15
e 6 15
e 7 15
e 9 15
e 12 15
e 3 16
e 13 16
e 15 16
e 13 17
e 1 18
e 9 18
e 17 18
e 1 19
e 2 19
e 1 20
e 3 20
e 5 20
e 9 20
e 10 20
e 15 20
e 16 20
e 7 21
e 18 21
e 19 21
e 1 22
e 14 22
e 15 22
e 16 22
e 2 23
e 5 23
e 8 23
e 14 23
e 21 23
e 22 23
e 4 24
e 7 24
e 8 24
e 9 24
e 12 24
e 17 24
e 1 25
e 4 25
e 5 25
e 8 25
e 14 25
e 17 25
e 20 25
e 3 26
e 6 26
e 9 26
e 13 26
e 17 26
e 22 26
e 1 27
e 3 27
e 6 27
e 10 27
e 18 27
e 22 27
e 10 28
e 16 28
e 19 28
e 1 29
e 13 29
e 16 29
e 19 29
e 22 29
e 27 29
e 4 30
e 5 30
e 8 30
e 19 30
e 20 30
e 26 30
e 4 31
e 8 31
e 19 31
e 1 32
e 3 32
e 6 32
e 16 32
e 21 32
e 24 32
e 29 32
e 9 33
e 13 33
e 14 33
e 3 34
e 14 34
e 15 34
e 24 34
e 28 34
e 1 35
e 2 35
e 9 35
e 10 35
e 11 35
e 19 35
e 21 35
e 29 35
e 31 35
e 2 36
e 4 36
e 5 36
e 6 36
e 12 36
e 20 36
e 23 36
e 25 36
e 26 36
e 27 36
e 31 36
e 32 36
e 33 36
e 34 36
e 8 37
e 13 37
e 17 37
e 24 37
e 28 37
e 1 38
e 9 38
e 10 38
e 19 38
e 20 38
e 21 38
e 23 38
e 27 38
e 5 39
e 9 39
e 10 39
e 11 39
e 21 39
e 22 39
e 25 39
e 32 39
e 34 39
e 38 39
e 26 40
e 28 40
e 29 40
e 33 40
e 3 41
e 21 41
e 22 41
e 27 41
e 31 41
e 33 41
e 38 41
e 39 41
e 40 41
e 7 42
e 12 42
e 13 42
e 14 42
e 15 42
e 24 42
e 35 42
e 3 43
e 4 43
e 5 43
e 15 43
e 20 43
e 32 43
e 36 43
e 1 44
e 4 44
e 5 44
e 9 44
e 18 44
e 20 44
e 43 44
e 2 45
e 11 45
e 15 45
e 16 45
e 17 45
e 19 45
e 29 45
e 31 45
e 33 45
e 41 45
e 42 45
e 1 46
e 13 46
e 19 46
e 20 46
e 23 46
e 25 46
e 42 46
e 2 47
e 12 47
e 13 47
e 15 47
e 17 47
e 21 47
e 27 47
e 32 47
e 33 47
e 34 47
e 35 47
e 46 47
e 6 48
e 7 48
e 19 48
e 29 48
e 46 48
e 5 49
e 6 49
e 10 49
e 13 49
e 16 49
e 19 49
e 20 49
e 22 49
e 23 49
e 29 49
e 36 49
e 43 49
e 44 49
e 47 49
e 4 50
e 8 50
e 11 50
e 16 50
e 18 50
e 22 50
e 33 50
e 46 50
e 49 50
e 2 51
e 4 51
e 17 51
e 30 51
e 36 51
e 40 51
e 11 52
e 14 52
e 17 52
e 20 52
e 26 52
e 28 52
e 45 52
e 9 53
e 13 53
e 14 53
e 25 53
e 26 53
e 36 53
e 44 53
e 45 53
e 48 53
e 52 53
e 5 54
e 9 54
e 10 54
e 15 54
e 17 54
e 21 54
e 25 54
e 31 54
e 38 54
e 40 54
e 41 54
e 48 54
e 1 55
e 11 55
e 12 55
e 15 55
e 20 55
e 25 55
e 29 55
e 30 55
e 34 55
e 35 55
e 42 55
e 47 55
e 51 55
e 53 55
e 4 56
e 8 56
e 9 56
e 10 56
e 11 56
e 20 56
e 21 56
e 35 56
e 37 56
e 46 56
e 53 56
e 55 56
e 8 57
e 18 57
e 19 57
e 23 57
e 24 57
e 31 57
e 32 57
e 34 57
e 40 57
e 4 58
e 10 58
e 14 58
e 16 58
e 34 58
e 38 58
e 42 58
e 43 58
e 54 58
e 57 58
e 3 59
e 11 59
e 15 59
e 24 59
e 28 59
e 32 59
e 35 59
e 37 59
e 40 59
e 51 59
e 52 59
e 57 59
e 14 60
e 17 60
e 24 60
e 27 60
e 28 60
e 30 60
e 37 60
e 39 60
e 40 60
e 45 60
e 49 60
e 51 60
e 52 60
e 58 60
e 1 61
e 6 61
e 8 61
e 12 61
e 19 61
e 26 61
e 34 61
e 36 61
e 38 61
e 47 61
e 52 61
e 53 61
e 56 61
e 58 61
e 15 62
e 16 62
e 18 62
e 19 62
e 22 62
e 23 62
e 28 62
e 29 62
e 41 62
e 42 62
e 46 62
e 53 62
e 54 62
e 60 62
e 3 63
e 13 63
e 14 63
e 15 63
e 16 63
e 20 63
e 25 63
e 26 63
e 29 63
e 30 63
e 33 63
e 37 63
e 43 63
e 53 63
e 56 63
e 12 64
e 19 64
e 21 64
e 25 64
e 27 64
e 32 64
e 37 64
e 48 64
e 58 64
e 59 64
e 4 65
e 8 65
e 15 65
e 18 65
e 25 65
e 26 65
e 27 65
e 30 65
e 43 65
e 54 65
e 57 65
e 2 66
e 5 66
e 12 66
e 13 66
e 18 66
e 28 66
e 36 66
e 42 66
e 46 66
e 56 66
e 58 66
e 64 66
e 8 67
e 12 67
e 25 67
e 27 67
e 29 67
e 31 67
e 32 67
e 52 67
e 54 67
e 62 67
e 11 68
e 17 68
e 18 68
e 21 68
e 30 68
e 31 68
e 35 68
e 36 68
e 41 68
e 42 68
e 45 68
e 55 68
e 59 68
e 4 69
e 20 69
e 22 69
e 27 69
e 30 69
e 36 69
e 38 69
e 45 69
e 46 69
e 52 69
e 54 69
e 55 69
e 61 69
e 62 69
e 63 69
e 64 69
e 68 69
e 3 70
e 4 70
e 6 70
e 13 70
e 15 70
e 16 70
e 20 70
e 25 70
e 26 70
e 27 70
e 31 70
e 34 70
e 36 70
e 37 70
e 52 70
e 56 70
e 58 70
e 69 70
e 5 71
e 7 71
e 26 71
e 28 71
e 29 71
e 37 71
e 38 71
e 46 71
e 51 71
e 62 71
e 67 71
e 69 71
e 1 72
e 3 72
e 4 72
e 11 72
e 14 72
e 23 72
e 26 72
e 33 72
e 44 72
e 48 72
e 49 72
e 55 72
e 59 72
e 65 72
e 3 73
e 6 73
e 14 73
e 19 73
e 20 73
e 32 73
e 34 73
e 39 73
e 45 73
e 57 73
e 68 73
e 3 74
e 7 74
e 13 74
e 22 74
e 26 74
e 38 74
e 44 74
e 52 74
e 53 74
e 59 74
e 62 74
e 71 74
e 73 74
e 3 75
e 11 75
e 12 75
e 14 75
e 22 75
e 23 75
e 28 75
e 35 75
e 43 75
e 50 75
e 56 75
e 57 75
e 64 75
e 68 75
e 2 76
e 5 76
e 7 76
e 8 76
e 9 76
e 18 76
e 21 76
e 22 76
e 24 76
e 25 76
e 28 76
e 33 76
e 34 76
e 42 76
e 43 76
e 52 76
e 68 76
e 69 76
e 1 77
e 3 77
e 4 77
e 6 77
e 7 77
e 8 77
e 9 77
e 41 77
e 44 77
e 48 77
e 53 77
e 56 77
e 57 77
e 58 77
e 67 77
e 68 77
e 70 77
e 72 77
e 1 78
e 2 78
e 5 78
e 23 78
e 27 78
e 36 78
e 39 78
e 43 78
e 52 78
e 53 78
e 57 78
e 71 78
e 73 78
e 76 78
e 4 79
e 9 79
e 16 79
e 24 79
e 28 79
e 30 79
e 33 79
e 35 79
e 38 79
e 41 79
e 42 79
e 47 79
e 50 79
e 53 79
e 55 79
e 59 79
e 61 79
e 63 79
e 67 79
e 68 79
e 69 79
e 4 80
e 7 80
e 8 80
e 11 80
e 13 80
e 19 80
e 30 80
e 34 80
e 41 80
e 44 80
e 47 80
e 51 80
e 53 80
e 64 80
e 78 80
